\ENCODING=ISO-8859-1
\Problem name: SARP

Maximize
 obj: - 30 x(0,1,0) - 30 x(0,1,1) - 100 x(0,2,0) - 100 x(0,2,1) - 95 x(0,3,0)
      - 95 x(0,3,1) - 95 x(0,4,0) - 95 x(0,4,1) - 10 x(0,5,0) - 10 x(0,5,1)
      - 35 x(0,6,0) - 35 x(0,6,1) - 80 x(0,7,0) - 80 x(0,7,1) - 110 x(0,8,0)
      - 110 x(0,8,1) - 15 x(0,9,0) - 15 x(0,9,1) - 45 x(0,10,0) - 45 x(0,10,1)
      - 30 x(1,0,0) - 30 x(1,0,1) - 125 x(1,2,0) - 125 x(1,2,1) - 125 x(1,3,0)
      - 125 x(1,3,1) - 115 x(1,4,0) - 115 x(1,4,1) - 40 x(1,5,0) - 40 x(1,5,1)
      - 5 x(1,6,0) - 5 x(1,6,1) - 110 x(1,7,0) - 110 x(1,7,1) - 130 x(1,8,0)
      - 130 x(1,8,1) - 30 x(1,9,0) - 30 x(1,9,1) - 40 x(1,10,0) - 40 x(1,10,1)
      - 100 x(2,0,0) - 100 x(2,0,1) - 125 x(2,1,0) - 125 x(2,1,1) - 15 x(2,3,0)
      - 15 x(2,3,1) - 10 x(2,4,0) - 10 x(2,4,1) - 90 x(2,5,0) - 90 x(2,5,1)
      - 130 x(2,6,0) - 130 x(2,6,1) - 20 x(2,7,0) - 20 x(2,7,1) - 20 x(2,8,0)
      - 20 x(2,8,1) - 95 x(2,9,0) - 95 x(2,9,1) - 100 x(2,10,0) - 100 x(2,10,1)
      - 84.5 x(3,0,0) - 84.5 x(3,0,1) - 114.5 x(3,1,0) - 114.5 x(3,1,1)
      - 4.5 x(3,2,0) - 4.5 x(3,2,1) - 9.5 x(3,4,0) - 9.5 x(3,4,1)
      - 74.5 x(3,5,0) - 74.5 x(3,5,1) - 119.5 x(3,6,0) - 119.5 x(3,6,1)
      - 19.5 x(3,8,0) - 19.5 x(3,8,1) - 79.5 x(3,9,0) - 79.5 x(3,9,1)
      - 94.5 x(3,10,0) - 94.5 x(3,10,1) - 82 x(4,0,0) - 82 x(4,0,1)
      - 102 x(4,1,0) - 102 x(4,1,1) + 3 x(4,2,0) + 3 x(4,2,1) - 7 x(4,3,0)
      - 7 x(4,3,1) - 67 x(4,5,0) - 67 x(4,5,1) - 107 x(4,6,0) - 107 x(4,6,1)
      - 7 x(4,7,0) - 7 x(4,7,1) - 72 x(4,9,0) - 72 x(4,9,1) - 77 x(4,10,0)
      - 77 x(4,10,1) - 2 x(5,0,0) - 2 x(5,0,1) - 32 x(5,1,0) - 32 x(5,1,1)
      - 82 x(5,2,0) - 82 x(5,2,1) - 77 x(5,3,0) - 77 x(5,3,1) - 72 x(5,4,0)
      - 72 x(5,4,1) - 37 x(5,6,0) - 37 x(5,6,1) - 62 x(5,7,0) - 62 x(5,7,1)
      - 92 x(5,8,0) - 92 x(5,8,1) - 37 x(5,10,0) - 37 x(5,10,1) - 12 x(6,0,0)
      - 12 x(6,0,1) + 18 x(6,1,0) + 18 x(6,1,1) - 107 x(6,2,0) - 107 x(6,2,1)
      - 107 x(6,3,0) - 107 x(6,3,1) - 97 x(6,4,0) - 97 x(6,4,1) - 22 x(6,5,0)
      - 22 x(6,5,1) - 92 x(6,7,0) - 92 x(6,7,1) - 117 x(6,8,0) - 117 x(6,8,1)
      - 12 x(6,9,0) - 12 x(6,9,1) - 80 x(7,0,0) - 80 x(7,0,1) - 110 x(7,1,0)
      - 110 x(7,1,1) - 20 x(7,2,0) - 20 x(7,2,1) - 20 x(7,4,0) - 20 x(7,4,1)
      - 70 x(7,5,0) - 70 x(7,5,1) - 115 x(7,6,0) - 115 x(7,6,1) - 40 x(7,8,0)
      - 40 x(7,8,1) - 80 x(7,9,0) - 80 x(7,9,1) - 90 x(7,10,0) - 90 x(7,10,1)
      - 110 x(8,0,0) - 110 x(8,0,1) - 130 x(8,1,0) - 130 x(8,1,1) - 20 x(8,2,0)
      - 20 x(8,2,1) - 30 x(8,3,0) - 30 x(8,3,1) - 100 x(8,5,0) - 100 x(8,5,1)
      - 140 x(8,6,0) - 140 x(8,6,1) - 40 x(8,7,0) - 40 x(8,7,1) - 100 x(8,9,0)
      - 100 x(8,9,1) - 105 x(8,10,0) - 105 x(8,10,1) - 15 x(9,0,0)
      - 15 x(9,0,1) - 30 x(9,1,0) - 30 x(9,1,1) - 95 x(9,2,0) - 95 x(9,2,1)
      - 90 x(9,3,0) - 90 x(9,3,1) - 85 x(9,4,0) - 85 x(9,4,1) - 35 x(9,6,0)
      - 35 x(9,6,1) - 80 x(9,7,0) - 80 x(9,7,1) - 100 x(9,8,0) - 100 x(9,8,1)
      - 30 x(9,10,0) - 30 x(9,10,1) - 45 x(10,0,0) - 45 x(10,0,1)
      - 40 x(10,1,0) - 40 x(10,1,1) - 100 x(10,2,0) - 100 x(10,2,1)
      - 105 x(10,3,0) - 105 x(10,3,1) - 90 x(10,4,0) - 90 x(10,4,1)
      - 45 x(10,5,0) - 45 x(10,5,1) - 90 x(10,7,0) - 90 x(10,7,1)
      - 105 x(10,8,0) - 105 x(10,8,1) - 30 x(10,9,0) - 30 x(10,9,1)
      - 30 x(11,0,0) - 30 x(11,0,1) - 10 x(11,1,0) - 10 x(11,1,1)
      - 130 x(11,2,0) - 130 x(11,2,1) - 125 x(11,3,0) - 125 x(11,3,1)
      - 120 x(11,4,0) - 120 x(11,4,1) - 40 x(11,5,0) - 40 x(11,5,1)
      - 10 x(11,6,0) - 10 x(11,6,1) + 0 x(11,13,0) + 0 x(11,13,1)
      - 115 x(12,0,0) - 115 x(12,0,1) - 140 x(12,1,0) - 140 x(12,1,1)
      - 25 x(12,2,0) - 25 x(12,2,1) - 20 x(12,3,0) - 20 x(12,3,1)
      - 35 x(12,4,0) - 35 x(12,4,1) - 105 x(12,5,0) - 105 x(12,5,1)
      - 145 x(12,6,0) - 145 x(12,6,1) + 0 x(12,13,0) + 0 x(12,13,1) + 0 b(0)
      + 0 b(1) + 0 b(2) + 0 b(3) + 0 b(4) + 0 b(5) + 0 b(6) + 0 b(7) + 0 b(8)
      + 0 b(9) + 0 b(10) + 0 b(11) + 0 b(12) + 0 b(13)
Subject To
 Constraint1_0:    x(0,1,0) + x(0,1,1) + x(0,2,0) + x(0,2,1) + x(0,3,0)
                   + x(0,3,1) + x(0,4,0) + x(0,4,1) + x(0,5,0) + x(0,5,1)
                   + x(0,6,0) + x(0,6,1) + x(0,7,0) + x(0,7,1) + x(0,8,0)
                   + x(0,8,1) + x(0,9,0) + x(0,9,1) + x(0,10,0) + x(0,10,1)
                   + x(0,13,0) + x(0,13,1)  = 1
 Constraint1_1:    x(1,0,0) + x(1,0,1) + x(1,2,0) + x(1,2,1) + x(1,3,0)
                   + x(1,3,1) + x(1,4,0) + x(1,4,1) + x(1,5,0) + x(1,5,1)
                   + x(1,6,0) + x(1,6,1) + x(1,7,0) + x(1,7,1) + x(1,8,0)
                   + x(1,8,1) + x(1,9,0) + x(1,9,1) + x(1,10,0) + x(1,10,1)
                   + x(1,13,0) + x(1,13,1)  = 1
 Constraint1_2:    x(2,0,0) + x(2,0,1) + x(2,1,0) + x(2,1,1) + x(2,3,0)
                   + x(2,3,1) + x(2,4,0) + x(2,4,1) + x(2,5,0) + x(2,5,1)
                   + x(2,6,0) + x(2,6,1) + x(2,7,0) + x(2,7,1) + x(2,8,0)
                   + x(2,8,1) + x(2,9,0) + x(2,9,1) + x(2,10,0) + x(2,10,1)
                   + x(2,13,0) + x(2,13,1)  = 1
 Constraint2_2:    x(2,0,0) + x(2,0,1) + x(2,1,0) + x(2,1,1) + x(2,3,0)
                   + x(2,3,1) + x(2,4,0) + x(2,4,1) + x(2,5,0) + x(2,5,1)
                   + x(2,6,0) + x(2,6,1) + x(2,7,0) + x(2,7,1) + x(2,8,0)
                   + x(2,8,1) + x(2,9,0) + x(2,9,1) + x(2,10,0) + x(2,10,1)
                   + x(2,13,0) + x(2,13,1) <= 1
 Constraint2_3:    x(3,0,0) + x(3,0,1) + x(3,1,0) + x(3,1,1) + x(3,2,0)
                   + x(3,2,1) + x(3,4,0) + x(3,4,1) + x(3,5,0) + x(3,5,1)
                   + x(3,6,0) + x(3,6,1) + x(3,8,0) + x(3,8,1) + x(3,9,0)
                   + x(3,9,1) + x(3,10,0) + x(3,10,1) <= 1
 Constraint2_4:    x(4,0,0) + x(4,0,1) + x(4,1,0) + x(4,1,1) + x(4,2,0)
                   + x(4,2,1) + x(4,3,0) + x(4,3,1) + x(4,5,0) + x(4,5,1)
                   + x(4,6,0) + x(4,6,1) + x(4,7,0) + x(4,7,1) + x(4,9,0)
                   + x(4,9,1) + x(4,10,0) + x(4,10,1) <= 1
 Constraint2_5:    x(5,0,0) + x(5,0,1) + x(5,1,0) + x(5,1,1) + x(5,2,0)
                   + x(5,2,1) + x(5,3,0) + x(5,3,1) + x(5,4,0) + x(5,4,1)
                   + x(5,6,0) + x(5,6,1) + x(5,7,0) + x(5,7,1) + x(5,8,0)
                   + x(5,8,1) + x(5,10,0) + x(5,10,1) <= 1
 Constraint2_6:    x(6,0,0) + x(6,0,1) + x(6,1,0) + x(6,1,1) + x(6,2,0)
                   + x(6,2,1) + x(6,3,0) + x(6,3,1) + x(6,4,0) + x(6,4,1)
                   + x(6,5,0) + x(6,5,1) + x(6,7,0) + x(6,7,1) + x(6,8,0)
                   + x(6,8,1) + x(6,9,0) + x(6,9,1) <= 1
 Constraint3_2_0:  x(2,0,0) + x(2,1,0) + x(2,3,0) + x(2,4,0) + x(2,5,0)
                   + x(2,6,0) + x(2,7,0) + x(2,8,0) + x(2,9,0) + x(2,10,0)
                   + x(2,13,0) - x(6,0,0) - x(6,1,0) - x(6,2,0) - x(6,3,0)
                   - x(6,4,0) - x(6,5,0) - x(6,7,0) - x(6,8,0) - x(6,9,0)  = 0
 Constraint3_2_1:  x(2,0,1) + x(2,1,1) + x(2,3,1) + x(2,4,1) + x(2,5,1)
                   + x(2,6,1) + x(2,7,1) + x(2,8,1) + x(2,9,1) + x(2,10,1)
                   + x(2,13,1) - x(6,0,1) - x(6,1,1) - x(6,2,1) - x(6,3,1)
                   - x(6,4,1) - x(6,5,1) - x(6,7,1) - x(6,8,1) - x(6,9,1)  = 0
 Constraint3_3_0:  x(3,0,0) + x(3,1,0) + x(3,2,0) + x(3,4,0) + x(3,5,0)
                   + x(3,6,0) + x(3,8,0) + x(3,9,0) + x(3,10,0) - x(7,0,0)
                   - x(7,1,0) - x(7,2,0) - x(7,4,0) - x(7,5,0) - x(7,6,0)
                   - x(7,8,0) - x(7,9,0) - x(7,10,0) - x(7,13,0)  = 0
 Constraint3_3_1:  x(3,0,1) + x(3,1,1) + x(3,2,1) + x(3,4,1) + x(3,5,1)
                   + x(3,6,1) + x(3,8,1) + x(3,9,1) + x(3,10,1) - x(7,0,1)
                   - x(7,1,1) - x(7,2,1) - x(7,4,1) - x(7,5,1) - x(7,6,1)
                   - x(7,8,1) - x(7,9,1) - x(7,10,1) - x(7,13,1)  = 0
 Constraint3_4_0:  x(4,0,0) + x(4,1,0) + x(4,2,0) + x(4,3,0) + x(4,5,0)
                   + x(4,6,0) + x(4,7,0) + x(4,9,0) + x(4,10,0) - x(8,0,0)
                   - x(8,1,0) - x(8,2,0) - x(8,3,0) - x(8,5,0) - x(8,6,0)
                   - x(8,7,0) - x(8,9,0) - x(8,10,0) - x(8,13,0)  = 0
 Constraint3_4_1:  x(4,0,1) + x(4,1,1) + x(4,2,1) + x(4,3,1) + x(4,5,1)
                   + x(4,6,1) + x(4,7,1) + x(4,9,1) + x(4,10,1) - x(8,0,1)
                   - x(8,1,1) - x(8,2,1) - x(8,3,1) - x(8,5,1) - x(8,6,1)
                   - x(8,7,1) - x(8,9,1) - x(8,10,1) - x(8,13,1)  = 0
 Constraint3_5_0:  x(5,0,0) + x(5,1,0) + x(5,2,0) + x(5,3,0) + x(5,4,0)
                   + x(5,6,0) + x(5,7,0) + x(5,8,0) + x(5,10,0) - x(9,0,0)
                   - x(9,1,0) - x(9,2,0) - x(9,3,0) - x(9,4,0) - x(9,6,0)
                   - x(9,7,0) - x(9,8,0) - x(9,10,0) - x(9,13,0)  = 0
 Constraint3_5_1:  x(5,0,1) + x(5,1,1) + x(5,2,1) + x(5,3,1) + x(5,4,1)
                   + x(5,6,1) + x(5,7,1) + x(5,8,1) + x(5,10,1) - x(9,0,1)
                   - x(9,1,1) - x(9,2,1) - x(9,3,1) - x(9,4,1) - x(9,6,1)
                   - x(9,7,1) - x(9,8,1) - x(9,10,1) - x(9,13,1)  = 0
 Constraint3_6_0:  x(6,0,0) + x(6,1,0) + x(6,2,0) + x(6,3,0) + x(6,4,0)
                   + x(6,5,0) + x(6,7,0) + x(6,8,0) + x(6,9,0) - x(10,0,0)
                   - x(10,1,0) - x(10,2,0) - x(10,3,0) - x(10,4,0) - x(10,5,0)
                   - x(10,7,0) - x(10,8,0) - x(10,9,0) - x(10,13,0)  = 0
 Constraint3_6_1:  x(6,0,1) + x(6,1,1) + x(6,2,1) + x(6,3,1) + x(6,4,1)
                   + x(6,5,1) + x(6,7,1) + x(6,8,1) + x(6,9,1) - x(10,0,1)
                   - x(10,1,1) - x(10,2,1) - x(10,3,1) - x(10,4,1) - x(10,5,1)
                   - x(10,7,1) - x(10,8,1) - x(10,9,1) - x(10,13,1)  = 0
 Constraint4_0_0:  x(0,1,0) + x(0,2,0) + x(0,3,0) + x(0,4,0) + x(0,5,0)
                   + x(0,6,0) + x(0,7,0) + x(0,8,0) + x(0,9,0) + x(0,10,0)
                   + x(0,13,0) - x(1,0,0) - x(2,0,0) - x(3,0,0) - x(4,0,0)
                   - x(5,0,0) - x(6,0,0) - x(7,0,0) - x(8,0,0) - x(9,0,0)
                   - x(10,0,0) - x(11,0,0) - x(12,0,0)  = 0
 Constraint4_0_1:  x(0,1,1) + x(0,2,1) + x(0,3,1) + x(0,4,1) + x(0,5,1)
                   + x(0,6,1) + x(0,7,1) + x(0,8,1) + x(0,9,1) + x(0,10,1)
                   + x(0,13,1) - x(1,0,1) - x(2,0,1) - x(3,0,1) - x(4,0,1)
                   - x(5,0,1) - x(6,0,1) - x(7,0,1) - x(8,0,1) - x(9,0,1)
                   - x(10,0,1) - x(11,0,1) - x(12,0,1)  = 0
 Constraint4_1_0:  - x(0,1,0) + x(1,0,0) + x(1,2,0) + x(1,3,0) + x(1,4,0)
                   + x(1,5,0) + x(1,6,0) + x(1,7,0) + x(1,8,0) + x(1,9,0)
                   + x(1,10,0) + x(1,13,0) - x(2,1,0) - x(3,1,0) - x(4,1,0)
                   - x(5,1,0) - x(6,1,0) - x(7,1,0) - x(8,1,0) - x(9,1,0)
                   - x(10,1,0) - x(11,1,0) - x(12,1,0)  = 0
 Constraint4_1_1:  - x(0,1,1) + x(1,0,1) + x(1,2,1) + x(1,3,1) + x(1,4,1)
                   + x(1,5,1) + x(1,6,1) + x(1,7,1) + x(1,8,1) + x(1,9,1)
                   + x(1,10,1) + x(1,13,1) - x(2,1,1) - x(3,1,1) - x(4,1,1)
                   - x(5,1,1) - x(6,1,1) - x(7,1,1) - x(8,1,1) - x(9,1,1)
                   - x(10,1,1) - x(11,1,1) - x(12,1,1)  = 0
 Constraint4_2_0:  - x(0,2,0) - x(1,2,0) + x(2,0,0) + x(2,1,0) + x(2,3,0)
                   + x(2,4,0) + x(2,5,0) + x(2,6,0) + x(2,7,0) + x(2,8,0)
                   + x(2,9,0) + x(2,10,0) + x(2,13,0) - x(3,2,0) - x(4,2,0)
                   - x(5,2,0) - x(6,2,0) - x(7,2,0) - x(8,2,0) - x(9,2,0)
                   - x(10,2,0) - x(11,2,0) - x(12,2,0)  = 0
 Constraint4_2_1:  - x(0,2,1) - x(1,2,1) + x(2,0,1) + x(2,1,1) + x(2,3,1)
                   + x(2,4,1) + x(2,5,1) + x(2,6,1) + x(2,7,1) + x(2,8,1)
                   + x(2,9,1) + x(2,10,1) + x(2,13,1) - x(3,2,1) - x(4,2,1)
                   - x(5,2,1) - x(6,2,1) - x(7,2,1) - x(8,2,1) - x(9,2,1)
                   - x(10,2,1) - x(11,2,1) - x(12,2,1)  = 0
 Constraint4_3_0:  - x(0,3,0) - x(1,3,0) - x(2,3,0) + x(3,0,0) + x(3,1,0)
                   + x(3,2,0) + x(3,4,0) + x(3,5,0) + x(3,6,0) + x(3,8,0)
                   + x(3,9,0) + x(3,10,0) - x(4,3,0) - x(5,3,0) - x(6,3,0)
                   - x(8,3,0) - x(9,3,0) - x(10,3,0) - x(11,3,0) - x(12,3,0)
                    = 0
 Constraint4_3_1:  - x(0,3,1) - x(1,3,1) - x(2,3,1) + x(3,0,1) + x(3,1,1)
                   + x(3,2,1) + x(3,4,1) + x(3,5,1) + x(3,6,1) + x(3,8,1)
                   + x(3,9,1) + x(3,10,1) - x(4,3,1) - x(5,3,1) - x(6,3,1)
                   - x(8,3,1) - x(9,3,1) - x(10,3,1) - x(11,3,1) - x(12,3,1)
                    = 0
 Constraint4_4_0:  - x(0,4,0) - x(1,4,0) - x(2,4,0) - x(3,4,0) + x(4,0,0)
                   + x(4,1,0) + x(4,2,0) + x(4,3,0) + x(4,5,0) + x(4,6,0)
                   + x(4,7,0) + x(4,9,0) + x(4,10,0) - x(5,4,0) - x(6,4,0)
                   - x(7,4,0) - x(9,4,0) - x(10,4,0) - x(11,4,0) - x(12,4,0)
                    = 0
 Constraint4_4_1:  - x(0,4,1) - x(1,4,1) - x(2,4,1) - x(3,4,1) + x(4,0,1)
                   + x(4,1,1) + x(4,2,1) + x(4,3,1) + x(4,5,1) + x(4,6,1)
                   + x(4,7,1) + x(4,9,1) + x(4,10,1) - x(5,4,1) - x(6,4,1)
                   - x(7,4,1) - x(9,4,1) - x(10,4,1) - x(11,4,1) - x(12,4,1)
                    = 0
 Constraint4_5_0:  - x(0,5,0) - x(1,5,0) - x(2,5,0) - x(3,5,0) - x(4,5,0)
                   + x(5,0,0) + x(5,1,0) + x(5,2,0) + x(5,3,0) + x(5,4,0)
                   + x(5,6,0) + x(5,7,0) + x(5,8,0) + x(5,10,0) - x(6,5,0)
                   - x(7,5,0) - x(8,5,0) - x(10,5,0) - x(11,5,0) - x(12,5,0)
                    = 0
 Constraint4_5_1:  - x(0,5,1) - x(1,5,1) - x(2,5,1) - x(3,5,1) - x(4,5,1)
                   + x(5,0,1) + x(5,1,1) + x(5,2,1) + x(5,3,1) + x(5,4,1)
                   + x(5,6,1) + x(5,7,1) + x(5,8,1) + x(5,10,1) - x(6,5,1)
                   - x(7,5,1) - x(8,5,1) - x(10,5,1) - x(11,5,1) - x(12,5,1)
                    = 0
 Constraint4_6_0:  - x(0,6,0) - x(1,6,0) - x(2,6,0) - x(3,6,0) - x(4,6,0)
                   - x(5,6,0) + x(6,0,0) + x(6,1,0) + x(6,2,0) + x(6,3,0)
                   + x(6,4,0) + x(6,5,0) + x(6,7,0) + x(6,8,0) + x(6,9,0)
                   - x(7,6,0) - x(8,6,0) - x(9,6,0) - x(11,6,0) - x(12,6,0)
                    = 0
 Constraint4_6_1:  - x(0,6,1) - x(1,6,1) - x(2,6,1) - x(3,6,1) - x(4,6,1)
                   - x(5,6,1) + x(6,0,1) + x(6,1,1) + x(6,2,1) + x(6,3,1)
                   + x(6,4,1) + x(6,5,1) + x(6,7,1) + x(6,8,1) + x(6,9,1)
                   - x(7,6,1) - x(8,6,1) - x(9,6,1) - x(11,6,1) - x(12,6,1)
                    = 0
 Constraint4_7_0:  - x(0,7,0) - x(1,7,0) - x(2,7,0) - x(4,7,0) - x(5,7,0)
                   - x(6,7,0) + x(7,0,0) + x(7,1,0) + x(7,2,0) + x(7,4,0)
                   + x(7,5,0) + x(7,6,0) + x(7,8,0) + x(7,9,0) + x(7,10,0)
                   + x(7,13,0) - x(8,7,0) - x(9,7,0) - x(10,7,0)  = 0
 Constraint4_7_1:  - x(0,7,1) - x(1,7,1) - x(2,7,1) - x(4,7,1) - x(5,7,1)
                   - x(6,7,1) + x(7,0,1) + x(7,1,1) + x(7,2,1) + x(7,4,1)
                   + x(7,5,1) + x(7,6,1) + x(7,8,1) + x(7,9,1) + x(7,10,1)
                   + x(7,13,1) - x(8,7,1) - x(9,7,1) - x(10,7,1)  = 0
 Constraint4_8_0:  - x(0,8,0) - x(1,8,0) - x(2,8,0) - x(3,8,0) - x(5,8,0)
                   - x(6,8,0) - x(7,8,0) + x(8,0,0) + x(8,1,0) + x(8,2,0)
                   + x(8,3,0) + x(8,5,0) + x(8,6,0) + x(8,7,0) + x(8,9,0)
                   + x(8,10,0) + x(8,13,0) - x(9,8,0) - x(10,8,0)  = 0
 Constraint4_8_1:  - x(0,8,1) - x(1,8,1) - x(2,8,1) - x(3,8,1) - x(5,8,1)
                   - x(6,8,1) - x(7,8,1) + x(8,0,1) + x(8,1,1) + x(8,2,1)
                   + x(8,3,1) + x(8,5,1) + x(8,6,1) + x(8,7,1) + x(8,9,1)
                   + x(8,10,1) + x(8,13,1) - x(9,8,1) - x(10,8,1)  = 0
 Constraint4_9_0:  - x(0,9,0) - x(1,9,0) - x(2,9,0) - x(3,9,0) - x(4,9,0)
                   - x(6,9,0) - x(7,9,0) - x(8,9,0) + x(9,0,0) + x(9,1,0)
                   + x(9,2,0) + x(9,3,0) + x(9,4,0) + x(9,6,0) + x(9,7,0)
                   + x(9,8,0) + x(9,10,0) + x(9,13,0) - x(10,9,0)  = 0
 Constraint4_9_1:  - x(0,9,1) - x(1,9,1) - x(2,9,1) - x(3,9,1) - x(4,9,1)
                   - x(6,9,1) - x(7,9,1) - x(8,9,1) + x(9,0,1) + x(9,1,1)
                   + x(9,2,1) + x(9,3,1) + x(9,4,1) + x(9,6,1) + x(9,7,1)
                   + x(9,8,1) + x(9,10,1) + x(9,13,1) - x(10,9,1)  = 0
 Constraint4_10_0: - x(0,10,0) - x(1,10,0) - x(2,10,0) - x(3,10,0) - x(4,10,0)
                   - x(5,10,0) - x(7,10,0) - x(8,10,0) - x(9,10,0) + x(10,0,0)
                   + x(10,1,0) + x(10,2,0) + x(10,3,0) + x(10,4,0) + x(10,5,0)
                   + x(10,7,0) + x(10,8,0) + x(10,9,0) + x(10,13,0)  = 0
 Constraint4_10_1: - x(0,10,1) - x(1,10,1) - x(2,10,1) - x(3,10,1) - x(4,10,1)
                   - x(5,10,1) - x(7,10,1) - x(8,10,1) - x(9,10,1) + x(10,0,1)
                   + x(10,1,1) + x(10,2,1) + x(10,3,1) + x(10,4,1) + x(10,5,1)
                   + x(10,7,1) + x(10,8,1) + x(10,9,1) + x(10,13,1)  = 0
Bounds
 0 <= x(0,1,0) <= 1
 0 <= x(0,1,1) <= 1
 0 <= x(0,2,0) <= 1
 0 <= x(0,2,1) <= 1
 0 <= x(0,3,0) <= 1
 0 <= x(0,3,1) <= 1
 0 <= x(0,4,0) <= 1
 0 <= x(0,4,1) <= 1
 0 <= x(0,5,0) <= 1
 0 <= x(0,5,1) <= 1
 0 <= x(0,6,0) <= 1
 0 <= x(0,6,1) <= 1
 0 <= x(0,7,0) <= 1
 0 <= x(0,7,1) <= 1
 0 <= x(0,8,0) <= 1
 0 <= x(0,8,1) <= 1
 0 <= x(0,9,0) <= 1
 0 <= x(0,9,1) <= 1
 0 <= x(0,10,0) <= 1
 0 <= x(0,10,1) <= 1
 0 <= x(0,13,0) <= 1
 0 <= x(0,13,1) <= 1
 0 <= x(1,0,0) <= 1
 0 <= x(1,0,1) <= 1
 0 <= x(1,2,0) <= 1
 0 <= x(1,2,1) <= 1
 0 <= x(1,3,0) <= 1
 0 <= x(1,3,1) <= 1
 0 <= x(1,4,0) <= 1
 0 <= x(1,4,1) <= 1
 0 <= x(1,5,0) <= 1
 0 <= x(1,5,1) <= 1
 0 <= x(1,6,0) <= 1
 0 <= x(1,6,1) <= 1
 0 <= x(1,7,0) <= 1
 0 <= x(1,7,1) <= 1
 0 <= x(1,8,0) <= 1
 0 <= x(1,8,1) <= 1
 0 <= x(1,9,0) <= 1
 0 <= x(1,9,1) <= 1
 0 <= x(1,10,0) <= 1
 0 <= x(1,10,1) <= 1
 0 <= x(1,13,0) <= 1
 0 <= x(1,13,1) <= 1
 0 <= x(2,0,0) <= 1
 0 <= x(2,0,1) <= 1
 0 <= x(2,1,0) <= 1
 0 <= x(2,1,1) <= 1
 0 <= x(2,3,0) <= 1
 0 <= x(2,3,1) <= 1
 0 <= x(2,4,0) <= 1
 0 <= x(2,4,1) <= 1
 0 <= x(2,5,0) <= 1
 0 <= x(2,5,1) <= 1
 0 <= x(2,6,0) <= 1
 0 <= x(2,6,1) <= 1
 0 <= x(2,7,0) <= 1
 0 <= x(2,7,1) <= 1
 0 <= x(2,8,0) <= 1
 0 <= x(2,8,1) <= 1
 0 <= x(2,9,0) <= 1
 0 <= x(2,9,1) <= 1
 0 <= x(2,10,0) <= 1
 0 <= x(2,10,1) <= 1
 0 <= x(2,13,0) <= 1
 0 <= x(2,13,1) <= 1
 0 <= x(3,0,0) <= 1
 0 <= x(3,0,1) <= 1
 0 <= x(3,1,0) <= 1
 0 <= x(3,1,1) <= 1
 0 <= x(3,2,0) <= 1
 0 <= x(3,2,1) <= 1
 0 <= x(3,4,0) <= 1
 0 <= x(3,4,1) <= 1
 0 <= x(3,5,0) <= 1
 0 <= x(3,5,1) <= 1
 0 <= x(3,6,0) <= 1
 0 <= x(3,6,1) <= 1
 0 <= x(3,8,0) <= 1
 0 <= x(3,8,1) <= 1
 0 <= x(3,9,0) <= 1
 0 <= x(3,9,1) <= 1
 0 <= x(3,10,0) <= 1
 0 <= x(3,10,1) <= 1
 0 <= x(4,0,0) <= 1
 0 <= x(4,0,1) <= 1
 0 <= x(4,1,0) <= 1
 0 <= x(4,1,1) <= 1
 0 <= x(4,2,0) <= 1
 0 <= x(4,2,1) <= 1
 0 <= x(4,3,0) <= 1
 0 <= x(4,3,1) <= 1
 0 <= x(4,5,0) <= 1
 0 <= x(4,5,1) <= 1
 0 <= x(4,6,0) <= 1
 0 <= x(4,6,1) <= 1
 0 <= x(4,7,0) <= 1
 0 <= x(4,7,1) <= 1
 0 <= x(4,9,0) <= 1
 0 <= x(4,9,1) <= 1
 0 <= x(4,10,0) <= 1
 0 <= x(4,10,1) <= 1
 0 <= x(5,0,0) <= 1
 0 <= x(5,0,1) <= 1
 0 <= x(5,1,0) <= 1
 0 <= x(5,1,1) <= 1
 0 <= x(5,2,0) <= 1
 0 <= x(5,2,1) <= 1
 0 <= x(5,3,0) <= 1
 0 <= x(5,3,1) <= 1
 0 <= x(5,4,0) <= 1
 0 <= x(5,4,1) <= 1
 0 <= x(5,6,0) <= 1
 0 <= x(5,6,1) <= 1
 0 <= x(5,7,0) <= 1
 0 <= x(5,7,1) <= 1
 0 <= x(5,8,0) <= 1
 0 <= x(5,8,1) <= 1
 0 <= x(5,10,0) <= 1
 0 <= x(5,10,1) <= 1
 0 <= x(6,0,0) <= 1
 0 <= x(6,0,1) <= 1
 0 <= x(6,1,0) <= 1
 0 <= x(6,1,1) <= 1
 0 <= x(6,2,0) <= 1
 0 <= x(6,2,1) <= 1
 0 <= x(6,3,0) <= 1
 0 <= x(6,3,1) <= 1
 0 <= x(6,4,0) <= 1
 0 <= x(6,4,1) <= 1
 0 <= x(6,5,0) <= 1
 0 <= x(6,5,1) <= 1
 0 <= x(6,7,0) <= 1
 0 <= x(6,7,1) <= 1
 0 <= x(6,8,0) <= 1
 0 <= x(6,8,1) <= 1
 0 <= x(6,9,0) <= 1
 0 <= x(6,9,1) <= 1
 0 <= x(7,0,0) <= 1
 0 <= x(7,0,1) <= 1
 0 <= x(7,1,0) <= 1
 0 <= x(7,1,1) <= 1
 0 <= x(7,2,0) <= 1
 0 <= x(7,2,1) <= 1
 0 <= x(7,4,0) <= 1
 0 <= x(7,4,1) <= 1
 0 <= x(7,5,0) <= 1
 0 <= x(7,5,1) <= 1
 0 <= x(7,6,0) <= 1
 0 <= x(7,6,1) <= 1
 0 <= x(7,8,0) <= 1
 0 <= x(7,8,1) <= 1
 0 <= x(7,9,0) <= 1
 0 <= x(7,9,1) <= 1
 0 <= x(7,10,0) <= 1
 0 <= x(7,10,1) <= 1
 0 <= x(7,13,0) <= 1
 0 <= x(7,13,1) <= 1
 0 <= x(8,0,0) <= 1
 0 <= x(8,0,1) <= 1
 0 <= x(8,1,0) <= 1
 0 <= x(8,1,1) <= 1
 0 <= x(8,2,0) <= 1
 0 <= x(8,2,1) <= 1
 0 <= x(8,3,0) <= 1
 0 <= x(8,3,1) <= 1
 0 <= x(8,5,0) <= 1
 0 <= x(8,5,1) <= 1
 0 <= x(8,6,0) <= 1
 0 <= x(8,6,1) <= 1
 0 <= x(8,7,0) <= 1
 0 <= x(8,7,1) <= 1
 0 <= x(8,9,0) <= 1
 0 <= x(8,9,1) <= 1
 0 <= x(8,10,0) <= 1
 0 <= x(8,10,1) <= 1
 0 <= x(8,13,0) <= 1
 0 <= x(8,13,1) <= 1
 0 <= x(9,0,0) <= 1
 0 <= x(9,0,1) <= 1
 0 <= x(9,1,0) <= 1
 0 <= x(9,1,1) <= 1
 0 <= x(9,2,0) <= 1
 0 <= x(9,2,1) <= 1
 0 <= x(9,3,0) <= 1
 0 <= x(9,3,1) <= 1
 0 <= x(9,4,0) <= 1
 0 <= x(9,4,1) <= 1
 0 <= x(9,6,0) <= 1
 0 <= x(9,6,1) <= 1
 0 <= x(9,7,0) <= 1
 0 <= x(9,7,1) <= 1
 0 <= x(9,8,0) <= 1
 0 <= x(9,8,1) <= 1
 0 <= x(9,10,0) <= 1
 0 <= x(9,10,1) <= 1
 0 <= x(9,13,0) <= 1
 0 <= x(9,13,1) <= 1
 0 <= x(10,0,0) <= 1
 0 <= x(10,0,1) <= 1
 0 <= x(10,1,0) <= 1
 0 <= x(10,1,1) <= 1
 0 <= x(10,2,0) <= 1
 0 <= x(10,2,1) <= 1
 0 <= x(10,3,0) <= 1
 0 <= x(10,3,1) <= 1
 0 <= x(10,4,0) <= 1
 0 <= x(10,4,1) <= 1
 0 <= x(10,5,0) <= 1
 0 <= x(10,5,1) <= 1
 0 <= x(10,7,0) <= 1
 0 <= x(10,7,1) <= 1
 0 <= x(10,8,0) <= 1
 0 <= x(10,8,1) <= 1
 0 <= x(10,9,0) <= 1
 0 <= x(10,9,1) <= 1
 0 <= x(10,13,0) <= 1
 0 <= x(10,13,1) <= 1
 0 <= x(11,0,0) <= 1
 0 <= x(11,0,1) <= 1
 0 <= x(11,1,0) <= 1
 0 <= x(11,1,1) <= 1
 0 <= x(11,2,0) <= 1
 0 <= x(11,2,1) <= 1
 0 <= x(11,3,0) <= 1
 0 <= x(11,3,1) <= 1
 0 <= x(11,4,0) <= 1
 0 <= x(11,4,1) <= 1
 0 <= x(11,5,0) <= 1
 0 <= x(11,5,1) <= 1
 0 <= x(11,6,0) <= 1
 0 <= x(11,6,1) <= 1
 0 <= x(11,13,0) <= 1
 0 <= x(11,13,1) <= 1
 0 <= x(12,0,0) <= 1
 0 <= x(12,0,1) <= 1
 0 <= x(12,1,0) <= 1
 0 <= x(12,1,1) <= 1
 0 <= x(12,2,0) <= 1
 0 <= x(12,2,1) <= 1
 0 <= x(12,3,0) <= 1
 0 <= x(12,3,1) <= 1
 0 <= x(12,4,0) <= 1
 0 <= x(12,4,1) <= 1
 0 <= x(12,5,0) <= 1
 0 <= x(12,5,1) <= 1
 0 <= x(12,6,0) <= 1
 0 <= x(12,6,1) <= 1
 0 <= x(12,13,0) <= 1
 0 <= x(12,13,1) <= 1
 0 <= b(0) <= 720
 0 <= b(1) <= 720
 0 <= b(2) <= 720
 0 <= b(3) <= 720
 0 <= b(4) <= 720
 0 <= b(5) <= 720
 0 <= b(6) <= 720
 0 <= b(7) <= 720
 0 <= b(8) <= 720
 0 <= b(9) <= 720
 0 <= b(10) <= 720
 0 <= b(11) <= 720
 0 <= b(12) <= 720
 0 <= b(13) <= 720
Binaries
 x(0,1,0)  x(0,1,1)  x(0,2,0)  x(0,2,1)  x(0,3,0)  x(0,3,1)  x(0,4,0) 
 x(0,4,1)  x(0,5,0)  x(0,5,1)  x(0,6,0)  x(0,6,1)  x(0,7,0)  x(0,7,1) 
 x(0,8,0)  x(0,8,1)  x(0,9,0)  x(0,9,1)  x(0,10,0)  x(0,10,1)  x(0,13,0) 
 x(0,13,1)  x(1,0,0)  x(1,0,1)  x(1,2,0)  x(1,2,1)  x(1,3,0)  x(1,3,1) 
 x(1,4,0)  x(1,4,1)  x(1,5,0)  x(1,5,1)  x(1,6,0)  x(1,6,1)  x(1,7,0) 
 x(1,7,1)  x(1,8,0)  x(1,8,1)  x(1,9,0)  x(1,9,1)  x(1,10,0)  x(1,10,1) 
 x(1,13,0)  x(1,13,1)  x(2,0,0)  x(2,0,1)  x(2,1,0)  x(2,1,1)  x(2,3,0) 
 x(2,3,1)  x(2,4,0)  x(2,4,1)  x(2,5,0)  x(2,5,1)  x(2,6,0)  x(2,6,1) 
 x(2,7,0)  x(2,7,1)  x(2,8,0)  x(2,8,1)  x(2,9,0)  x(2,9,1)  x(2,10,0) 
 x(2,10,1)  x(2,13,0)  x(2,13,1)  x(3,0,0)  x(3,0,1)  x(3,1,0)  x(3,1,1) 
 x(3,2,0)  x(3,2,1)  x(3,4,0)  x(3,4,1)  x(3,5,0)  x(3,5,1)  x(3,6,0) 
 x(3,6,1)  x(3,8,0)  x(3,8,1)  x(3,9,0)  x(3,9,1)  x(3,10,0)  x(3,10,1) 
 x(4,0,0)  x(4,0,1)  x(4,1,0)  x(4,1,1)  x(4,2,0)  x(4,2,1)  x(4,3,0) 
 x(4,3,1)  x(4,5,0)  x(4,5,1)  x(4,6,0)  x(4,6,1)  x(4,7,0)  x(4,7,1) 
 x(4,9,0)  x(4,9,1)  x(4,10,0)  x(4,10,1)  x(5,0,0)  x(5,0,1)  x(5,1,0) 
 x(5,1,1)  x(5,2,0)  x(5,2,1)  x(5,3,0)  x(5,3,1)  x(5,4,0)  x(5,4,1) 
 x(5,6,0)  x(5,6,1)  x(5,7,0)  x(5,7,1)  x(5,8,0)  x(5,8,1)  x(5,10,0) 
 x(5,10,1)  x(6,0,0)  x(6,0,1)  x(6,1,0)  x(6,1,1)  x(6,2,0)  x(6,2,1) 
 x(6,3,0)  x(6,3,1)  x(6,4,0)  x(6,4,1)  x(6,5,0)  x(6,5,1)  x(6,7,0) 
 x(6,7,1)  x(6,8,0)  x(6,8,1)  x(6,9,0)  x(6,9,1)  x(7,0,0)  x(7,0,1) 
 x(7,1,0)  x(7,1,1)  x(7,2,0)  x(7,2,1)  x(7,4,0)  x(7,4,1)  x(7,5,0) 
 x(7,5,1)  x(7,6,0)  x(7,6,1)  x(7,8,0)  x(7,8,1)  x(7,9,0)  x(7,9,1) 
 x(7,10,0)  x(7,10,1)  x(7,13,0)  x(7,13,1)  x(8,0,0)  x(8,0,1)  x(8,1,0) 
 x(8,1,1)  x(8,2,0)  x(8,2,1)  x(8,3,0)  x(8,3,1)  x(8,5,0)  x(8,5,1) 
 x(8,6,0)  x(8,6,1)  x(8,7,0)  x(8,7,1)  x(8,9,0)  x(8,9,1)  x(8,10,0) 
 x(8,10,1)  x(8,13,0)  x(8,13,1)  x(9,0,0)  x(9,0,1)  x(9,1,0)  x(9,1,1) 
 x(9,2,0)  x(9,2,1)  x(9,3,0)  x(9,3,1)  x(9,4,0)  x(9,4,1)  x(9,6,0) 
 x(9,6,1)  x(9,7,0)  x(9,7,1)  x(9,8,0)  x(9,8,1)  x(9,10,0)  x(9,10,1) 
 x(9,13,0)  x(9,13,1)  x(10,0,0)  x(10,0,1)  x(10,1,0)  x(10,1,1)  x(10,2,0) 
 x(10,2,1)  x(10,3,0)  x(10,3,1)  x(10,4,0)  x(10,4,1)  x(10,5,0)  x(10,5,1) 
 x(10,7,0)  x(10,7,1)  x(10,8,0)  x(10,8,1)  x(10,9,0)  x(10,9,1)  x(10,13,0) 
 x(10,13,1)  x(11,0,0)  x(11,0,1)  x(11,1,0)  x(11,1,1)  x(11,2,0)  x(11,2,1) 
 x(11,3,0)  x(11,3,1)  x(11,4,0)  x(11,4,1)  x(11,5,0)  x(11,5,1)  x(11,6,0) 
 x(11,6,1)  x(11,13,0)  x(11,13,1)  x(12,0,0)  x(12,0,1)  x(12,1,0)  x(12,1,1) 
 x(12,2,0)  x(12,2,1)  x(12,3,0)  x(12,3,1)  x(12,4,0)  x(12,4,1)  x(12,5,0) 
 x(12,5,1)  x(12,6,0)  x(12,6,1)  x(12,13,0)  x(12,13,1) 
End
